p wcnf 136 162 163 
1 -77 -10 0 
1 120 -28 0 
1 105 13 0 
1 -113 110 0 
1 -125 -66 0 
1 117 74 0 
1 -15 81 0 
1 -12 104 0 
1 120 106 0 
1 -68 -73 0 
1 -72 -101 0 
1 4 46 0 
1 7 -88 0 
1 9 -88 0 
1 62 17 0 
1 -126 10 0 
1 99 -70 0 
1 -55 131 0 
1 22 -32 0 
1 7 -78 0 
1 53 -121 0 
1 -26 -131 0 
1 -98 54 0 
1 -82 136 0 
1 75 13 0 
1 124 52 0 
1 -57 103 0 
1 -51 53 0 
1 85 22 0 
1 -59 124 0 
1 32 17 0 
1 66 53 0 
1 18 135 0 
1 -63 46 0 
1 -91 -61 0 
1 100 -40 0 
1 72 16 0 
1 80 -26 0 
1 96 -2 0 
1 -103 -66 0 
1 85 -136 0 
1 121 96 0 
1 -110 81 0 
1 50 -68 0 
1 104 -30 0 
1 -32 125 0 
1 -53 -42 0 
1 94 111 0 
1 -136 43 0 
1 97 -129 0 
1 -4 -111 0 
1 -63 120 0 
1 -106 -120 0 
1 -111 28 0 
1 -32 -109 0 
1 -97 -24 0 
1 30 -75 0 
1 98 -88 0 
1 63 -23 0 
1 60 -45 0 
1 132 -99 0 
1 -48 -38 0 
1 -77 -4 0 
1 -2 133 0 
1 120 -67 0 
1 47 124 0 
1 -78 -125 0 
1 85 70 0 
1 81 -101 0 
1 10 -4 0 
1 33 -11 0 
1 -26 -81 0 
1 89 41 0 
1 -34 -31 0 
1 -13 50 0 
1 84 21 0 
1 61 -11 0 
1 98 -115 0 
1 25 15 0 
1 -87 31 0 
1 -123 34 0 
1 18 -15 0 
1 136 -64 0 
1 105 -27 0 
1 -89 82 0 
1 128 -86 0 
1 -53 -50 0 
1 4 -119 0 
1 43 -62 0 
1 118 79 0 
1 -9 125 0 
1 73 67 0 
1 135 34 0 
1 67 -49 0 
1 64 -79 0 
1 96 61 0 
1 87 -40 0 
1 60 -58 0 
1 -59 38 0 
1 32 -36 0 
1 -68 62 0 
1 -110 43 0 
1 -46 -118 0 
1 94 -7 0 
1 1 15 0 
1 -92 36 0 
1 52 -54 0 
1 88 72 0 
1 -83 132 0 
1 83 -102 0 
1 -53 124 0 
1 -51 62 0 
1 94 -83 0 
1 93 21 0 
1 -8 -79 0 
1 -114 117 0 
1 114 -108 0 
1 -125 -101 0 
1 50 130 0 
1 -110 94 0 
1 -132 -68 0 
1 110 -50 0 
1 8 -36 0 
1 136 113 0 
1 98 -21 0 
1 39 -73 0 
1 -30 -50 0 
1 -25 71 0 
1 109 38 0 
1 -113 -61 0 
1 50 -82 0 
1 133 27 0 
1 -41 81 0 
1 43 64 0 
1 76 -89 0 
1 -110 136 0 
1 -39 -88 0 
1 -129 68 0 
1 -88 -130 0 
1 -83 -104 0 
1 -124 -4 0 
1 -128 -89 0 
1 -107 -25 0 
1 105 -125 0 
1 -44 -33 0 
1 27 109 0 
1 8 -53 0 
1 -46 -122 0 
1 10 -43 0 
1 89 -27 0 
1 3 92 0 
1 71 128 0 
1 -20 131 0 
1 58 -66 0 
1 30 89 0 
1 2 104 0 
1 -107 -127 0 
1 74 -77 0 
1 49 -53 0 
1 -115 13 0 
1 -86 46 0 
1 -49 -44 0 
